<?xml version = "1.0" encoding="UTF-8" standalone="yes"?>
<CPLEXSolution version="1.2">
 <header
   problemName="ILOG.CPLEX"
   solutionName="incumbent"
   solutionIndex="-1"
   objectiveValue="0.0020049638262197716"
   solutionTypeValue="3"
   solutionTypeString="primal"
   solutionStatusValue="101"
   solutionStatusString="integer optimal solution"
   solutionMethodString="mip"
   primalFeasible="1"
   dualFeasible="1"
   MIPNodes="1878"
   MIPIterations="11546"
   writeLevel="1"/>
 <quality
   epInt="1.0000000000000001e-05"
   epRHS="9.9999999999999995e-07"
   maxIntInfeas="4.7563299604778324e-06"
   maxPrimalInfeas="8.4902989482569435e-07"
   maxX="1"
   maxSlack="18385.202271728158"/>
 <linearConstraints>
  <constraint name="C1_0" index="0" slack="0"/>
  <constraint name="C1_1" index="1" slack="0"/>
  <constraint name="C1_2" index="2" slack="0"/>
  <constraint name="C1_3" index="3" slack="0"/>
  <constraint name="C1_4" index="4" slack="0"/>
  <constraint name="C1_5" index="5" slack="0"/>
  <constraint name="2_0_0_0_1" index="6" slack="-76.235259737593722"/>
  <constraint name="2_0_0_0_2" index="7" slack="-23.087460714154737"/>
  <constraint name="2_0_0_0_3" index="8" slack="-85.529551752185199"/>
  <constraint name="2_0_0_0_4" index="9" slack="-34.130116081426507"/>
  <constraint name="max_attributes" index="10" slack="0"/>
  <constraint name="2_0_0_1_1" index="11" slack="-53.188770744002888"/>
  <constraint name="2_0_0_1_2" index="12" slack="-161.77039666575425"/>
  <constraint name="2_0_0_1_3" index="13" slack="-42.139042390344429"/>
  <constraint name="max_attributes" index="14" slack="0"/>
  <constraint name="2_0_1_0_1" index="15" slack="-0.0013937550187961278"/>
  <constraint name="2_0_1_0_2" index="16" slack="-0.0099333383839734779"/>
  <constraint name="2_0_1_0_3" index="17" slack="0"/>
  <constraint name="2_0_1_0_4" index="18" slack="-0.0017925879876656836"/>
  <constraint name="max_attributes" index="19" slack="0"/>
  <constraint name="2_0_1_1_1" index="20" slack="-0.0071407503962888086"/>
  <constraint name="max_attributes" index="21" slack="0"/>
  <constraint name="2_1_0_0_1" index="22" slack="-7689.9912017251763"/>
  <constraint name="2_1_0_0_2" index="23" slack="-8843.9042917357692"/>
  <constraint name="2_1_0_0_3" index="24" slack="-5264.276622271017"/>
  <constraint name="2_1_0_0_4" index="25" slack="-8208.7811642461456"/>
  <constraint name="max_attributes" index="26" slack="0"/>
  <constraint name="2_1_0_1_1" index="27" slack="-1677.9902051664274"/>
  <constraint name="2_1_0_1_2" index="28" slack="-635.12312748962268"/>
  <constraint name="max_attributes" index="29" slack="0"/>
  <constraint name="2_1_0_2_1" index="30" slack="-1707.0884109159999"/>
  <constraint name="max_attributes" index="31" slack="0"/>
  <constraint name="2_1_1_0_1" index="32" slack="-7689.9912017251763"/>
  <constraint name="2_1_1_0_2" index="33" slack="-8843.9042917357692"/>
  <constraint name="2_1_1_0_3" index="34" slack="-5264.276622271017"/>
  <constraint name="2_1_1_0_4" index="35" slack="-8208.7811642461456"/>
  <constraint name="max_attributes" index="36" slack="0"/>
  <constraint name="2_1_1_1_1" index="37" slack="-1707.0884109159999"/>
  <constraint name="2_1_1_1_2" index="38" slack="-1678.0266691638165"/>
  <constraint name="max_attributes" index="39" slack="0"/>
  <constraint name="2_1_1_2_1" index="40" slack="-635.12312748962268"/>
  <constraint name="max_attributes" index="41" slack="0"/>
  <constraint name="2_1_2_0_1" index="42" slack="-1677.9902051664274"/>
  <constraint name="2_1_2_0_2" index="43" slack="-635.12312748962268"/>
  <constraint name="2_1_2_0_3" index="44" slack="-13473.042440947276"/>
  <constraint name="2_1_2_0_4" index="45" slack="-8208.7658186762601"/>
  <constraint name="max_attributes" index="46" slack="0"/>
  <constraint name="2_1_2_1_1" index="47" slack="-7689.9912017251763"/>
  <constraint name="2_1_2_1_2" index="48" slack="-8843.9042917357692"/>
  <constraint name="max_attributes" index="49" slack="0"/>
  <constraint name="2_1_2_2_1" index="50" slack="-1707.0884109159999"/>
  <constraint name="max_attributes" index="51" slack="0"/>
  <constraint name="2_1_3_0_1" index="52" slack="-1677.9902051664274"/>
  <constraint name="2_1_3_0_2" index="53" slack="-635.12312748962268"/>
  <constraint name="2_1_3_0_3" index="54" slack="-13473.042440947276"/>
  <constraint name="2_1_3_0_4" index="55" slack="-8208.7658186762601"/>
  <constraint name="max_attributes" index="56" slack="0"/>
  <constraint name="2_1_3_1_1" index="57" slack="-1707.0884109159999"/>
  <constraint name="2_1_3_1_2" index="58" slack="-7690.0123201526776"/>
  <constraint name="max_attributes" index="59" slack="0"/>
  <constraint name="2_1_3_2_1" index="60" slack="-8843.9042917357692"/>
  <constraint name="max_attributes" index="61" slack="0"/>
  <constraint name="2_1_4_0_1" index="62" slack="-1707.0884109159999"/>
  <constraint name="2_1_4_0_2" index="63" slack="-12954.274478360796"/>
  <constraint name="2_1_4_0_3" index="64" slack="-1678.0266691638165"/>
  <constraint name="2_1_4_0_4" index="65" slack="-7690.0123201526776"/>
  <constraint name="max_attributes" index="66" slack="0"/>
  <constraint name="2_1_4_1_1" index="67" slack="-8843.9042917357692"/>
  <constraint name="2_1_4_1_2" index="68" slack="-8208.7811642461456"/>
  <constraint name="max_attributes" index="69" slack="0"/>
  <constraint name="2_1_4_2_1" index="70" slack="-635.12312748962268"/>
  <constraint name="max_attributes" index="71" slack="0"/>
  <constraint name="2_1_5_0_1" index="72" slack="-0.018989091420053228"/>
  <constraint name="2_1_5_0_2" index="73" slack="-0.0092979136115900474"/>
  <constraint name="2_1_5_0_3" index="74" slack="-0.01723199869434211"/>
  <constraint name="2_1_5_0_4" index="75" slack="-0.0095592137513449416"/>
  <constraint name="max_attributes" index="76" slack="0"/>
  <constraint name="2_1_5_1_1" index="77" slack="-0.0014281161210192295"/>
  <constraint name="2_1_5_1_2" index="78" slack="0"/>
  <constraint name="max_attributes" index="79" slack="0"/>
  <constraint name="2_1_5_2_1" index="80" slack="-0.0084298776691866806"/>
  <constraint name="max_attributes" index="81" slack="0"/>
  <constraint name="2_2_0_0_1" index="82" slack="-861.14717720124622"/>
  <constraint name="2_2_0_0_2" index="83" slack="-1279.5942220775778"/>
  <constraint name="2_2_0_0_3" index="84" slack="-864.27087079211742"/>
  <constraint name="2_2_0_0_4" index="85" slack="-1480.6235833513106"/>
  <constraint name="max_attributes" index="86" slack="0"/>
  <constraint name="2_2_0_1_1" index="87" slack="-418.44149367075158"/>
  <constraint name="2_2_0_1_2" index="88" slack="-415.32140045542832"/>
  <constraint name="2_2_0_1_3" index="89" slack="-201.09641931115186"/>
  <constraint name="max_attributes" index="90" slack="0"/>
  <constraint name="max_attributes" index="91" slack="0"/>
  <constraint name="2_2_1_0_1" index="92" slack="-0.012009433596858798"/>
  <constraint name="2_2_1_0_2" index="93" slack="-0.014785036386683714"/>
  <constraint name="2_2_1_0_3" index="94" slack="-0.013809621370796776"/>
  <constraint name="2_2_1_0_4" index="95" slack="-0.013535387138063015"/>
  <constraint name="max_attributes" index="96" slack="0"/>
  <constraint name="2_2_1_1_1" index="97" slack="-0.0014203302469582013"/>
  <constraint name="2_2_1_1_2" index="98" slack="-0.00075848096893338379"/>
  <constraint name="2_2_1_1_3" index="99" slack="0"/>
  <constraint name="max_attributes" index="100" slack="0"/>
  <constraint name="2_2_1_2_1" index="101" slack="5.6843418860808015e-14"/>
  <constraint name="max_attributes" index="102" slack="0"/>
  <constraint name="2_2_2_0_1" index="103" slack="-418.44149367075158"/>
  <constraint name="2_2_2_0_2" index="104" slack="-415.32140045542832"/>
  <constraint name="2_2_2_0_3" index="105" slack="-1279.5626520048045"/>
  <constraint name="2_2_2_0_4" index="106" slack="-201.09641931115186"/>
  <constraint name="max_attributes" index="107" slack="0"/>
  <constraint name="2_2_2_1_1" index="108" slack="-861.14717720124622"/>
  <constraint name="2_2_2_1_2" index="109" slack="-864.27087079211742"/>
  <constraint name="max_attributes" index="110" slack="0"/>
  <constraint name="max_attributes" index="111" slack="0"/>
  <constraint name="2_2_3_0_1" index="112" slack="-418.44149367075158"/>
  <constraint name="2_2_3_0_2" index="113" slack="-415.32140045542832"/>
  <constraint name="2_2_3_0_3" index="114" slack="-1279.5626520048045"/>
  <constraint name="2_2_3_0_4" index="115" slack="-201.09641931115186"/>
  <constraint name="max_attributes" index="116" slack="0"/>
  <constraint name="2_2_3_1_1" index="117" slack="-49.123693590871213"/>
  <constraint name="2_2_3_1_2" index="118" slack="-861.12115833405278"/>
  <constraint name="max_attributes" index="119" slack="0"/>
  <constraint name="max_attributes" index="120" slack="0"/>
  <constraint name="2_2_4_0_1" index="121" slack="-418.44704487633146"/>
  <constraint name="2_2_4_0_2" index="122" slack="-49.123693590871213"/>
  <constraint name="2_2_4_0_3" index="123" slack="-861.12115833405278"/>
  <constraint name="2_2_4_0_4" index="124" slack="-619.47640615006458"/>
  <constraint name="max_attributes" index="125" slack="0"/>
  <constraint name="2_2_4_1_1" index="126" slack="-1279.5942220775778"/>
  <constraint name="2_2_4_1_2" index="127" slack="-864.27087079211742"/>
  <constraint name="2_2_4_1_3" index="128" slack="-1480.6235833513106"/>
  <constraint name="max_attributes" index="129" slack="0"/>
  <constraint name="2_2_4_2_1" index="130" slack="-415.32140045542832"/>
  <constraint name="max_attributes" index="131" slack="0"/>
  <constraint name="2_2_5_0_1" index="132" slack="-418.44704487633146"/>
  <constraint name="2_2_5_0_2" index="133" slack="-49.123693590871213"/>
  <constraint name="2_2_5_0_3" index="134" slack="-861.12115833405278"/>
  <constraint name="2_2_5_0_4" index="135" slack="-619.47640615006458"/>
  <constraint name="max_attributes" index="136" slack="0"/>
  <constraint name="2_2_5_1_1" index="137" slack="-415.32140045542832"/>
  <constraint name="2_2_5_1_2" index="138" slack="-1279.5626520048045"/>
  <constraint name="2_2_5_1_3" index="139" slack="-201.09641931115186"/>
  <constraint name="max_attributes" index="140" slack="0"/>
  <constraint name="max_attributes" index="141" slack="0"/>
  <constraint name="2_3_0_0_1" index="142" slack="-15266.18715188536"/>
  <constraint name="2_3_0_0_2" index="143" slack="-18385.185380224248"/>
  <constraint name="2_3_0_0_3" index="144" slack="-7176.9910005948341"/>
  <constraint name="2_3_0_0_4" index="145" slack="-13795.013778483341"/>
  <constraint name="max_attributes" index="146" slack="0"/>
  <constraint name="2_3_0_1_1" index="147" slack="-8089.3285917468793"/>
  <constraint name="2_3_0_1_2" index="148" slack="-11208.623575918095"/>
  <constraint name="2_3_0_1_3" index="149" slack="-6618.4996729717568"/>
  <constraint name="max_attributes" index="150" slack="0"/>
  <constraint name="2_3_0_2_1" index="151" slack="-3119.287826330517"/>
  <constraint name="2_3_0_2_2" index="152" slack="-4590.1710206091593"/>
  <constraint name="max_attributes" index="153" slack="0"/>
  <constraint name="2_3_1_0_1" index="154" slack="-15266.18715188536"/>
  <constraint name="2_3_1_0_2" index="155" slack="-18385.185380224248"/>
  <constraint name="2_3_1_0_3" index="156" slack="-7176.9910005948341"/>
  <constraint name="2_3_1_0_4" index="157" slack="-13795.013778483341"/>
  <constraint name="max_attributes" index="158" slack="0"/>
  <constraint name="2_3_1_1_1" index="159" slack="-3119.287826330517"/>
  <constraint name="2_3_1_1_2" index="160" slack="-11208.611232919398"/>
  <constraint name="2_3_1_1_3" index="161" slack="-4590.1710206091593"/>
  <constraint name="max_attributes" index="162" slack="0"/>
  <constraint name="max_attributes" index="163" slack="0"/>
  <constraint name="2_3_2_0_1" index="164" slack="-8089.3285917468793"/>
  <constraint name="2_3_2_0_2" index="165" slack="-11208.623575918095"/>
  <constraint name="2_3_2_0_3" index="166" slack="-7177.0202350974405"/>
  <constraint name="2_3_2_0_4" index="167" slack="-6618.4996729717568"/>
  <constraint name="max_attributes" index="168" slack="0"/>
  <constraint name="2_3_2_1_1" index="169" slack="-15266.18715188536"/>
  <constraint name="2_3_2_1_2" index="170" slack="-18385.185380224248"/>
  <constraint name="2_3_2_1_3" index="171" slack="-13795.013778483341"/>
  <constraint name="max_attributes" index="172" slack="0"/>
  <constraint name="2_3_2_2_1" index="173" slack="-3119.287826330517"/>
  <constraint name="2_3_2_2_2" index="174" slack="-4590.1710206091593"/>
  <constraint name="max_attributes" index="175" slack="0"/>
  <constraint name="2_3_3_0_1" index="176" slack="-8089.3285917468793"/>
  <constraint name="2_3_3_0_2" index="177" slack="-11208.623575918095"/>
  <constraint name="2_3_3_0_3" index="178" slack="-7177.0202350974405"/>
  <constraint name="2_3_3_0_4" index="179" slack="-6618.4996729717568"/>
  <constraint name="max_attributes" index="180" slack="0"/>
  <constraint name="2_3_3_1_1" index="181" slack="-3119.287826330517"/>
  <constraint name="2_3_3_1_2" index="182" slack="-18385.202271728158"/>
  <constraint name="2_3_3_1_3" index="183" slack="-4590.1710206091593"/>
  <constraint name="max_attributes" index="184" slack="0"/>
  <constraint name="max_attributes" index="185" slack="0"/>
  <constraint name="2_3_4_0_1" index="186" slack="-3119.2832474101683"/>
  <constraint name="2_3_4_0_2" index="187" slack="-11208.594779389487"/>
  <constraint name="2_3_4_0_3" index="188" slack="-18385.175283446275"/>
  <constraint name="2_3_4_0_4" index="189" slack="-4590.1642825318422"/>
  <constraint name="max_attributes" index="190" slack="0"/>
  <constraint name="2_3_4_1_1" index="191" slack="-7176.9804652113626"/>
  <constraint name="max_attributes" index="192" slack="0"/>
  <constraint name="max_attributes" index="193" slack="0"/>
  <constraint name="2_3_5_0_1" index="194" slack="-4.5474735088646412e-13"/>
  <constraint name="2_3_5_0_2" index="195" slack="-0.0092820305635541445"/>
  <constraint name="2_3_5_0_3" index="196" slack="-0.034434033837897005"/>
  <constraint name="2_3_5_0_4" index="197" slack="-0.0054475114429806126"/>
  <constraint name="max_attributes" index="198" slack="0"/>
  <constraint name="2_3_5_1_1" index="199" slack="-0.024152634773599857"/>
  <constraint name="max_attributes" index="200" slack="0"/>
  <constraint name="max_attributes" index="201" slack="0"/>
  <constraint name="2_4_0_0_1" index="202" slack="-358.15777612049402"/>
  <constraint name="2_4_0_0_2" index="203" slack="-91.106258332832866"/>
  <constraint name="2_4_0_0_3" index="204" slack="-75.119188166281745"/>
  <constraint name="2_4_0_0_4" index="205" slack="-380.15918435838211"/>
  <constraint name="max_attributes" index="206" slack="0"/>
  <constraint name="2_4_0_1_1" index="207" slack="-295.21482562086078"/>
  <constraint name="2_4_0_1_2" index="208" slack="-166.2282689313966"/>
  <constraint name="2_4_0_1_3" index="209" slack="-317.09475346617762"/>
  <constraint name="max_attributes" index="210" slack="0"/>
  <constraint name="2_4_1_0_1" index="211" slack="-0.0037130600937302916"/>
  <constraint name="2_4_1_0_2" index="212" slack="-0.0027699675722203665"/>
  <constraint name="2_4_1_0_3" index="213" slack="-0.00066844290982714938"/>
  <constraint name="2_4_1_0_4" index="214" slack="-0.0011952668067465311"/>
  <constraint name="max_attributes" index="215" slack="0"/>
  <constraint name="2_4_1_1_1" index="216" slack="-0.0025173773185542814"/>
  <constraint name="2_4_1_1_2" index="217" slack="-0.0011015280865507293"/>
  <constraint name="2_4_1_1_3" index="218" slack="0"/>
  <constraint name="max_attributes" index="219" slack="0"/>
  <constraint name="2_5_0_0_1" index="220" slack="-122.13295116326782"/>
  <constraint name="2_5_0_0_2" index="221" slack="-46.78799374491507"/>
  <constraint name="2_5_0_0_3" index="222" slack="-87.654178243774581"/>
  <constraint name="2_5_0_0_4" index="223" slack="-19.414334093910433"/>
  <constraint name="max_attributes" index="224" slack="0"/>
  <constraint name="2_5_0_1_1" index="225" slack="-102.71861706935738"/>
  <constraint name="2_5_0_1_2" index="226" slack="-27.373659651004626"/>
  <constraint name="2_5_0_1_3" index="227" slack="-68.321272721292715"/>
  <constraint name="max_attributes" index="228" slack="0"/>
  <constraint name="2_5_0_2_1" index="229" slack="-41.390696235085436"/>
  <constraint name="max_attributes" index="230" slack="0"/>
  <constraint name="2_5_1_0_1" index="231" slack="-0.0022810825274035551"/>
  <constraint name="2_5_1_0_2" index="232" slack="-0.0063034871605864851"/>
  <constraint name="2_5_1_0_3" index="233" slack="0"/>
  <constraint name="2_5_1_0_4" index="234" slack="-0.0038452341463468542"/>
  <constraint name="max_attributes" index="235" slack="0"/>
  <constraint name="2_5_1_1_1" index="236" slack="-0.0012810825274058857"/>
  <constraint name="2_5_1_1_2" index="237" slack="-0.0053034871605817102"/>
  <constraint name="2_5_1_1_3" index="238" slack="-0.0028452341463491848"/>
  <constraint name="max_attributes" index="239" slack="0"/>
  <constraint name="max_attributes" index="240" slack="0"/>
  <constraint name="2_5_2_0_1" index="241" slack="-102.71861706935738"/>
  <constraint name="2_5_2_0_2" index="242" slack="-27.373659651004626"/>
  <constraint name="2_5_2_0_3" index="243" slack="-68.321272721292715"/>
  <constraint name="2_5_2_0_4" index="244" slack="-19.404643625617737"/>
  <constraint name="max_attributes" index="245" slack="0"/>
  <constraint name="2_5_2_1_1" index="246" slack="-122.13295116326782"/>
  <constraint name="2_5_2_1_2" index="247" slack="-46.78799374491507"/>
  <constraint name="2_5_2_1_3" index="248" slack="-87.654178243774581"/>
  <constraint name="max_attributes" index="249" slack="0"/>
  <constraint name="2_5_2_2_1" index="250" slack="-41.390696235085436"/>
  <constraint name="max_attributes" index="251" slack="0"/>
  <constraint name="2_5_3_0_1" index="252" slack="-102.71861706935738"/>
  <constraint name="2_5_3_0_2" index="253" slack="-27.373659651004626"/>
  <constraint name="2_5_3_0_3" index="254" slack="-68.321272721292715"/>
  <constraint name="2_5_3_0_4" index="255" slack="-19.404643625617737"/>
  <constraint name="max_attributes" index="256" slack="0"/>
  <constraint name="2_5_3_1_1" index="257" slack="-34.478772919493245"/>
  <constraint name="2_5_3_1_2" index="258" slack="-41.390696235085436"/>
  <constraint name="2_5_3_1_3" index="259" slack="-87.652178243774571"/>
  <constraint name="max_attributes" index="260" slack="0"/>
  <constraint name="max_attributes" index="261" slack="0"/>
  <constraint name="2_5_4_0_1" index="262" slack="-34.478772919493245"/>
  <constraint name="2_5_4_0_2" index="263" slack="-41.390696235085436"/>
  <constraint name="2_5_4_0_3" index="264" slack="-68.328963189585394"/>
  <constraint name="2_5_4_0_4" index="265" slack="-87.652178243774571"/>
  <constraint name="max_attributes" index="266" slack="0"/>
  <constraint name="2_5_4_1_1" index="267" slack="-46.78799374491507"/>
  <constraint name="2_5_4_1_2" index="268" slack="-19.414334093910433"/>
  <constraint name="max_attributes" index="269" slack="0"/>
  <constraint name="max_attributes" index="270" slack="0"/>
  <constraint name="2_5_5_0_1" index="271" slack="-34.478772919493245"/>
  <constraint name="2_5_5_0_2" index="272" slack="-41.390696235085436"/>
  <constraint name="2_5_5_0_3" index="273" slack="-68.328963189585394"/>
  <constraint name="2_5_5_0_4" index="274" slack="-87.652178243774571"/>
  <constraint name="max_attributes" index="275" slack="0"/>
  <constraint name="2_5_5_1_1" index="276" slack="-27.373659651004626"/>
  <constraint name="2_5_5_1_2" index="277" slack="-19.404643625617737"/>
  <constraint name="max_attributes" index="278" slack="0"/>
  <constraint name="max_attributes" index="279" slack="0"/>
  <constraint name="c281" index="280" slack="0"/>
  <constraint name="c282" index="281" slack="-2.1130523082916347e-06"/>
  <constraint name="c283" index="282" slack="0"/>
  <constraint name="c284" index="283" slack="0"/>
  <constraint name="c285" index="284" slack="-0.9807761061555611"/>
  <constraint name="c286" index="285" slack="-1.0192238938444389"/>
  <constraint name="c287" index="286" slack="-0.98911547156367807"/>
  <constraint name="c288" index="287" slack="-1.0108824153840137"/>
 </linearConstraints>
 <variables>
  <variable name="s_5_1" index="0" value="0"/>
  <variable name="s_5_0" index="1" value="1"/>
  <variable name="s_1_5" index="2" value="0"/>
  <variable name="s_1_4" index="3" value="0"/>
  <variable name="s_1_3" index="4" value="0"/>
  <variable name="s_1_2" index="5" value="0"/>
  <variable name="s_1_1" index="6" value="0"/>
  <variable name="s_1_0" index="7" value="1"/>
  <variable name="s_3_5" index="8" value="-0"/>
  <variable name="s_3_4" index="9" value="1"/>
  <variable name="s_3_3" index="10" value="-0"/>
  <variable name="s_3_2" index="11" value="0"/>
  <variable name="s_3_1" index="12" value="-0"/>
  <variable name="s_3_0" index="13" value="-0"/>
  <variable name="s_0_5" index="14" value="-0"/>
  <variable name="s_0_4" index="15" value="-0"/>
  <variable name="s_0_3" index="16" value="-0"/>
  <variable name="s_0_2" index="17" value="-0"/>
  <variable name="s_0_1" index="18" value="1.4679355937463612e-06"/>
  <variable name="s_0_0" index="19" value="0.99999853206440625"/>
  <variable name="s_2_1" index="20" value="3.4241496752462908e-06"/>
  <variable name="s_2_0" index="21" value="0.99999657585032475"/>
  <variable name="s_4_5" index="22" value="-0"/>
  <variable name="s_4_4" index="23" value="1"/>
  <variable name="s_4_3" index="24" value="0"/>
  <variable name="s_4_2" index="25" value="-0"/>
  <variable name="s_4_1" index="26" value="-0"/>
  <variable name="s_4_0" index="27" value="-0"/>
  <variable name="g_0" index="28" value="1.0565261541458173e-06"/>
  <variable name="g_1" index="29" value="0"/>
  <variable name="g_2" index="30" value="0.019223893844438941"/>
  <variable name="g_3" index="31" value="0.010883471910167759"/>
  <variable name="gamma_5_1_0" index="32" value="-0"/>
  <variable name="a_0" index="33" value="1.0565261541458173e-06"/>
  <variable name="a_1" index="34" value="0"/>
  <variable name="a_2" index="35" value="1"/>
  <variable name="a_3" index="36" value="0.99999894347384588"/>
  <variable name="gamma_5_1_1" index="37" value="-0"/>
  <variable name="gamma_5_0_0" index="38" value="-0"/>
  <variable name="gamma_5_0_1" index="39" value="-0"/>
  <variable name="gamma_1_5_0" index="40" value="-0"/>
  <variable name="gamma_1_5_1" index="41" value="-0"/>
  <variable name="gamma_1_5_2" index="42" value="-0"/>
  <variable name="gamma_1_4_0" index="43" value="-0"/>
  <variable name="gamma_1_4_1" index="44" value="-0"/>
  <variable name="gamma_1_4_2" index="45" value="-0"/>
  <variable name="gamma_1_3_0" index="46" value="-0"/>
  <variable name="gamma_1_3_1" index="47" value="-0"/>
  <variable name="gamma_1_3_2" index="48" value="-0"/>
  <variable name="gamma_1_2_0" index="49" value="-0"/>
  <variable name="gamma_1_2_1" index="50" value="-0"/>
  <variable name="gamma_1_2_2" index="51" value="-0"/>
  <variable name="gamma_1_1_0" index="52" value="-0"/>
  <variable name="gamma_1_1_1" index="53" value="-0"/>
  <variable name="gamma_1_1_2" index="54" value="-0"/>
  <variable name="gamma_1_0_0" index="55" value="-0"/>
  <variable name="gamma_1_0_1" index="56" value="1.0565261541195525e-06"/>
  <variable name="gamma_1_0_2" index="57" value="-0"/>
  <variable name="gamma_3_5_0" index="58" value="-0"/>
  <variable name="gamma_3_5_1" index="59" value="-0"/>
  <variable name="gamma_3_4_0" index="60" value="-0"/>
  <variable name="gamma_3_4_1" index="61" value="-8.4902989482569435e-07"/>
  <variable name="gamma_3_4_2" index="62" value="4.7563299604778324e-06"/>
  <variable name="gamma_3_3_0" index="63" value="-0"/>
  <variable name="gamma_3_3_1" index="64" value="-0"/>
  <variable name="gamma_3_2_0" index="65" value="-0"/>
  <variable name="gamma_3_2_1" index="66" value="-0"/>
  <variable name="gamma_3_1_0" index="67" value="-0"/>
  <variable name="gamma_3_1_1" index="68" value="-0"/>
  <variable name="gamma_3_1_2" index="69" value="-0"/>
  <variable name="gamma_3_0_0" index="70" value="-0"/>
  <variable name="gamma_3_0_1" index="71" value="-0"/>
  <variable name="gamma_0_5_0" index="72" value="-0"/>
  <variable name="gamma_0_5_1" index="73" value="-0"/>
  <variable name="gamma_0_5_2" index="74" value="-0"/>
  <variable name="gamma_0_4_0" index="75" value="-0"/>
  <variable name="gamma_0_4_1" index="76" value="-0"/>
  <variable name="gamma_0_3_0" index="77" value="-0"/>
  <variable name="gamma_0_3_1" index="78" value="-0"/>
  <variable name="gamma_0_3_2" index="79" value="-0"/>
  <variable name="gamma_0_2_0" index="80" value="-0"/>
  <variable name="gamma_0_2_1" index="81" value="-0"/>
  <variable name="gamma_0_1_0" index="82" value="-0"/>
  <variable name="gamma_0_1_1" index="83" value="-0"/>
  <variable name="gamma_0_0_0" index="84" value="-0"/>
  <variable name="gamma_0_0_1" index="85" value="-0"/>
  <variable name="gamma_2_1_0" index="86" value="-0"/>
  <variable name="gamma_2_1_1" index="87" value="-0"/>
  <variable name="gamma_2_0_0" index="88" value="-0"/>
  <variable name="gamma_2_0_1" index="89" value="-0"/>
  <variable name="gamma_4_5_0" index="90" value="-0"/>
  <variable name="gamma_4_5_1" index="91" value="-0"/>
  <variable name="gamma_4_5_2" index="92" value="-0"/>
  <variable name="gamma_4_4_0" index="93" value="-0"/>
  <variable name="gamma_4_4_1" index="94" value="-0"/>
  <variable name="gamma_4_3_0" index="95" value="-0"/>
  <variable name="gamma_4_3_1" index="96" value="-0"/>
  <variable name="gamma_4_3_2" index="97" value="-0"/>
  <variable name="gamma_4_2_0" index="98" value="-0"/>
  <variable name="gamma_4_2_1" index="99" value="-0"/>
  <variable name="gamma_4_1_0" index="100" value="-0"/>
  <variable name="gamma_4_1_1" index="101" value="-0"/>
  <variable name="gamma_4_0_0" index="102" value="-0"/>
  <variable name="gamma_4_0_1" index="103" value="-0"/>
  <variable name="gamma_3_5_2" index="104" value="0"/>
  <variable name="gamma_3_3_2" index="105" value="0"/>
  <variable name="gamma_3_2_2" index="106" value="0"/>
  <variable name="gamma_3_0_2" index="107" value="0"/>
  <variable name="gamma_0_4_2" index="108" value="0"/>
  <variable name="gamma_0_2_2" index="109" value="0"/>
  <variable name="gamma_0_1_2" index="110" value="0"/>
  <variable name="gamma_0_0_2" index="111" value="0"/>
  <variable name="gamma_4_4_2" index="112" value="0"/>
  <variable name="gamma_4_2_2" index="113" value="0"/>
  <variable name="gamma_4_1_2" index="114" value="0"/>
  <variable name="gamma_4_0_2" index="115" value="0"/>
 </variables>
</CPLEXSolution>
